Route #1: 4 34
Route #2: 46 52 27
Route #3: 13 54 19 8 35
Route #4: 7 53 14
Route #5: 11 38
Route #6: 10 31 39
Route #7: 9 40
Route #8: 12 17 51 16
Route #9: 3 44 32 25
Route #10: 50 18 24 49
Route #11: 23 43 41 42 1
Route #12: 33 22 28
Route #13: 21 47 36
Route #14: 5 37 20 15
Route #15: 45 29 48
Route #16: 30 2 6
Route #17: 26
Cost 985